
%FILE DATA:	Soccer Computational Problem for MiniZinc Models	%
%AUTHOR:	Jack Wall	%
%CONTACT:  	116397063@umail.ucc.ie			%
%LAST UPDATE:	03/03/2020, 16:02:56						%
%DESCRIPTION: 	32 games played with 24 games left				%


n=8; %number of teams

%Games to play
games=[|3,8|1,4|2,1|8,3|1,7|3,2|6,8|2,7|8,7|1,3|3,5|3,1|4,6|4,2|1,2|2,8|4,3|5,8|7,6|1,5|5,6|1,8|5,4|1,6|];

%Initial points
iPoints=[9,11,8,7,14,12,9,15];

%POSITION CONSTRAINTS
% [|teamID, operator, position|...]
% operators index:
%  1 for =  operator
%  2 for >  operator
%  3 for >= operator
%  4 for <  operator
%  5 for <= operator
positionConstraints=[|5,3,1|8,3,2|4,1,3|1,5,4|7,2,4|];